11
0 1 2 7 5 4 4 7 5 9 3 
7 0 1 6 6 5 9 3 3 3 5 
8 5 0 1 4 3 6 4 6 7 9 
9 8 8 0 1 8 8 9 5 6 6 
9 3 4 6 0 1 5 3 7 2 8 
4 9 4 7 3 0 1 4 5 2 6 
2 4 7 2 4 3 0 1 3 6 8 
9 5 9 8 2 7 4 0 1 6 4 
9 5 9 3 4 2 5 2 0 1 9 
3 5 6 5 6 5 6 6 8 0 1 
1 7 2 7 6 4 5 8 8 9 0 
